20
0 1 0.2 0.2
0 2 0.82 0.33
0 3 0.52 0.34
0 4 0.22 0.22
0 5 0.38 0.38
0 6 0.28 0.28
0 7 0.56 0.33
0 8 0.83 0.26
0 9 0.24 0.24
0 10 0.26 0.26
0 11 0.94 0.28
0 12 0.55 0.27
0 13 0.4 0.4
0 14 0.43 0.43
0 15 0.58 0.36
0 16 0.31 0.1
0 17 0.28 0.28
0 18 0.22 0.22
0 19 0.32 0.32
1 2 0.35 0.35
1 3 0.62 0.37
1 4 0.26 0.26
1 5 0.36 0.36
1 6 0.55 0.23
1 7 0.8 0.33
1 8 0.68 0.4
1 9 0.26 0.26
1 10 0.11 0.11
1 11 0.08 0.08
1 12 0.32 0.32
1 13 0.66 0.25
1 14 0.46 0.46
1 15 0.68 0.36
1 16 0.59 0.29
1 17 0.6 0.21
1 18 0.41 0.41
1 19 0.78 0.34
2 3 0.28 0.28
2 4 0.73 0.21
2 5 0.78 0.36
2 6 0.13 0.13
2 7 0.38 0.38
2 8 0.54 0.28
2 9 0.88 0.24
2 10 0.3 0.3
2 11 0.7 0.27
2 12 0.42 0.06
2 13 0.41 0.41
2 14 0.29 0.29
2 15 0.63 0.18
2 16 0.7 0.3
2 17 0.33 0.33
2 18 0.24 0.18
2 19 0.54 0.32
3 4 0.3 0.3
3 5 0.37 0.37
3 6 0.7 0.38
3 7 0.66 0.11
3 8 0.53 0.16
3 9 0.46 0.3
3 10 0.6 0.32
3 11 0.29 0.29
3 12 0.41 0.22
3 13 0.43 0.43
3 14 0.82 0.29
3 15 0.26 0.26
3 16 0.82 0.24
3 17 0.58 0.42
3 18 0.12 0.12
3 19 0.24 0.24
4 5 0.24 0.24
4 6 0.3 0.3
4 7 0.41 0.41
4 8 0.36 0.14
4 9 0.41 0.41
4 10 0.5 0.32
4 11 0.34 0.34
4 12 0.15 0.15
4 13 0.76 0.24
4 14 0.78 0.41
4 15 0.41 0.24
4 16 0.42 0.12
4 17 0.64 0.3
4 18 0.84 0.24
4 19 0.48 0.41
5 6 0.41 0.41
5 7 0.67 0.26
5 8 0.72 0.38
5 9 0.54 0.28
5 10 0.38 0.25
5 11 0.61 0.28
5 12 0.66 0.3
5 13 0.28 0.11
5 14 0.72 0.35
5 15 0.48 0.48
5 16 0.34 0.34
5 17 0.28 0.28
5 18 0.45 0.45
5 19 0.56 0.36
6 7 0.62 0.37
6 8 0.36 0.36
6 9 0.34 0.34
6 10 0.34 0.34
6 11 0.31 0.31
6 12 0.19 0.19
6 13 0.31 0.31
6 14 0.76 0.29
6 15 0.38 0.26
6 16 0.18 0.18
6 17 0.56 0.2
6 18 0.26 0.26
6 19 0.3 0.3
7 8 0.27 0.27
7 9 0.38 0.38
7 10 0.48 0.22
7 11 0.48 0.25
7 12 0.33 0.33
7 13 0.5 0.32
7 14 0.32 0.32
7 15 0.33 0.33
7 16 0.58 0.29
7 17 0.32 0.32
7 18 0.2 0.2
7 19 0.84 0.35
8 9 0.35 0.35
8 10 0.54 0.35
8 11 0.51 0.38
8 12 0.64 0.29
8 13 0.38 0.38
8 14 0.29 0.29
8 15 0.45 0.1
8 16 0.67 0.26
8 17 0.6 0.44
8 18 0.78 0.28
8 19 0.5 0.27
9 10 0.21 0.21
9 11 0.69 0.18
9 12 0.6 0.28
9 13 0.28 0.17
9 14 0.2 0.2
9 15 0.29 0.29
9 16 0.32 0.32
9 17 0.46 0.14
9 18 0.82 0.42
9 19 0.08 0.08
10 11 0.56 0.03
10 12 0.36 0.36
10 13 0.14 0.14
10 14 0.88 0.37
10 15 0.59 0.25
10 16 0.28 0.2
10 17 0.18 0.18
10 18 0.32 0.32
10 19 0.64 0.29
11 12 0.87 0.33
11 13 0.17 0.17
11 14 0.38 0.38
11 15 0.79 0.28
11 16 0.23 0.23
11 17 0.91 0.21
11 18 0.35 0.35
11 19 0.26 0.26
12 13 0.62 0.39
12 14 0.26 0.26
12 15 0.24 0.24
12 16 0.42 0.24
12 17 0.39 0.39
12 18 0.24 0.24
12 19 0.36 0.36
13 14 0.44 0.24
13 15 0.39 0.39
13 16 0.31 0.31
13 17 0.58 0.31
13 18 0.34 0.34
13 19 0.74 0.25
14 15 0.3 0.3
14 16 0.46 0.46
14 17 0.34 0.34
14 18 0.76 0.41
14 19 0.2 0.2
15 16 0.36 0.36
15 17 0.76 0.43
15 18 0.73 0.36
15 19 0.21 0.21
16 17 0.18 0.18
16 18 0.62 0.12
16 19 0.4 0.4
17 18 0.3 0.3
17 19 0.52 0.22
18 19 0.54 0.34
